
Gurobi 9.5.1 (linux64) logging started Tue 16 Aug 2022 09:13:49 PM MST

Set parameter LogFile to value "/home/local/ASUAD/kmajd1/NNRepLayer_v2/demos/walking_example/dynamic_constraint/repair_net/logs/opt_log_multi_29.log"
Gurobi Optimizer version 9.5.1 build v9.5.1rc2 (linux64)
Thread count: 48 physical cores, 96 logical processors, using up to 48 threads
Optimize a model with 15477 rows, 9832 columns and 131861 nonzeros
Model fingerprint: 0xe8a82adf
Model has 135 quadratic objective terms
Variable types: 5512 continuous, 4320 integer (4320 binary)
Coefficient statistics:
  Matrix range     [2e-03, 5e+01]
  Objective range  [5e-03, 3e+00]
  QObjective range [1e-01, 1e-01]
  Bounds range     [1e-03, 2e+02]
  RHS range        [7e-04, 5e+01]

Concurrent MIP optimizer: 3 concurrent instances (16 threads per instance)

Presolve removed 398 rows and 64 columns
Presolve time: 0.23s
Presolved: 15079 rows, 9768 columns, 131335 nonzeros
Presolved model has 135 quadratic objective terms
Variable types: 5448 continuous, 4320 integer (4320 binary)
Root relaxation presolve removed 4320 rows and 4320 columns
Root relaxation presolved: 10759 rows, 5448 columns, 118375 nonzeros
Root relaxation presolved model has 135 quadratic objective terms


Root relaxation: objective 1.596642e+01, 6563 iterations, 0.45 seconds (0.78 work units)

    Nodes    |    Current Node    |     Objective Bounds      |     Work
 Expl Unexpl |  Obj  Depth IntInf | Incumbent    BestBd   Gap | It/Node Time

     0     0      -    -    -              -   15.96642      -     -    0s
     0     0      -    -    -              -   15.96642      -     -    3s
     0     2      -    -    -              -   15.96642      -     -    8s
   515   548      -    -    -              -   15.96642      -     -   10s
  2589  2706      -    -    -              -   15.96642      -     -   15s
  4482  4676      -    -    -              -   15.96642      -     -   20s
  6393  6566      -    -    -              -   15.96642      -     -   25s
  7835  7998      -    -    -              -   15.96642      -     -   30s
  9087  9151      -    -    -              -   15.96642      -     -   37s
  9308  9438      -    -    -              -   15.96642      -     -   41s
 10386 10386      -    -    -              -   15.96642      -     -   49s
 10388 10388      -    -    -       45.39358   15.96642  64.8%     -   65s
 10395 10401      -    -    -       43.91024   15.96642  63.6%     -   97s
 10403  9402      -    -    -       31.86654   15.96642  49.9%     -  127s

Instance 0 was solved

Explored 10419 nodes (916697 simplex iterations) in 127.82 seconds (209.32 work units)
Thread count was 16 (of 96 available processors)

Solution count 10: 21.3636 24.8556 25.7322 ... 33.86 

Optimal solution found (tolerance 3.50e-01)
Best objective 2.136359757421e+01, best bound 1.596641642961e+01, gap 25.2634%
